3,1,12,1,12,2,4,4,11,2,11,3,3,2,5,2,5,3,7,3,8,3,15,3,15,4,8,5,1,5;14,1,2,1,2,2,13,3,1,1,11,4,9,4,11,5,6,4,12,3,6,5,1,4,3,5,7,5,15,5;10,1,13,2,6,1,8,1,7,2,14,2,15,2,1,2,10,5,1,3,9,5,7,4,2,4,2,5;13,1,4,1,4,2,4,3,10,3,9,1,9,2,15,1,10,4,2,3,3,3,8,2,5,4,14,5,12,4,12,5;11,1,5,1,10,2,7,1,6,2,4,5,9,3,14,3,14,4,13,4,6,3,3,4,13,5,8,4,5,5;
